525.0
446.0
432.0
495.0
429.0
430.0
464.0
458.0
463.0
443.0
438.0
439.0
435.0
458.0
441.0
429.0
430.0
449.0
447.0
454.0
433.0
483.0
438.0
465.0
451.0
482.0
480.0
484.0
438.0
482.0
459.0
435.0
462.0
465.0
460.0
431.0
464.0
474.0
437.0
433.0
476.0
436.0
434.0
440.0
461.0
488.0
427.0
430.0
453.0
431.0
457.0
433.0
437.0
467.0
442.0
498.0
448.0
439.0
438.0
433.0
445.0
440.0
437.0
432.0
435.0
443.0
437.0
430.0
455.0
430.0
433.0
470.0
454.0
431.0
441.0
431.0
462.0
447.0
431.0
441.0
464.0
424.0
439.0
457.0
432.0
437.0
435.0
437.0
454.0
465.0
434.0
468.0
430.0
451.0
448.0
420.0
445.0
439.0
425.0
474.0
